benchmarks_CP/INST_64x64/50/inst64x64_50_30.dzn
S=8;
start=[|
-1,	60,	11,	-1,	-1,	-1,	-1,	-1,	54,	-1,	-1,	53,	-1,	-1,	14,	-1,	-1,	51,	-1,	35,	-1,	-1,	49,	16,	-1,	44,	-1,	34,	47,	-1,	46,	-1,	-1,	-1,	-1,	2,	-1,	7,	-1,	62,	-1,	-1,	-1,	-1,	-1,	-1,	-1,	-1,	23,	30,	38,	-1,	-1,	-1,	-1,	1,	-1,	12,	17,	50,	-1,	-1,	-1,	-1|
58,	31,	-1,	27,	2,	-1,	17,	64,	-1,	8,	-1,	16,	-1,	-1,	-1,	44,	-1,	-1,	46,	37,	30,	57,	-1,	38,	5,	28,	-1,	-1,	25,	10,	63,	-1,	-1,	21,	-1,	50,	29,	26,	15,	-1,	-1,	48,	-1,	40,	-1,	36,	19,	-1,	54,	12,	60,	-1,	-1,	-1,	9,	-1,	49,	-1,	-1,	-1,	47,	-1,	-1,	56|
-1,	-1,	21,	46,	16,	7,	22,	-1,	-1,	47,	62,	59,	28,	38,	-1,	-1,	-1,	-1,	-1,	32,	-1,	-1,	50,	-1,	51,	12,	-1,	54,	57,	1,	48,	2,	37,	31,	3,	45,	-1,	-1,	-1,	-1,	9,	58,	-1,	27,	-1,	60,	-1,	11,	-1,	-1,	56,	-1,	-1,	49,	-1,	-1,	-1,	-1,	-1,	-1,	-1,	13,	6,	-1|
-1,	-1,	35,	-1,	-1,	39,	-1,	-1,	7,	-1,	-1,	-1,	22,	10,	-1,	-1,	26,	17,	-1,	-1,	-1,	3,	-1,	-1,	-1,	15,	-1,	-1,	50,	-1,	16,	-1,	-1,	30,	44,	25,	-1,	36,	12,	-1,	34,	59,	-1,	52,	51,	-1,	-1,	-1,	-1,	-1,	-1,	-1,	-1,	-1,	14,	19,	18,	-1,	-1,	61,	-1,	-1,	28,	38|
-1,	24,	49,	-1,	19,	-1,	-1,	-1,	30,	13,	48,	33,	12,	-1,	51,	-1,	60,	28,	-1,	-1,	-1,	34,	-1,	27,	-1,	-1,	6,	-1,	18,	-1,	7,	-1,	39,	-1,	-1,	17,	-1,	46,	-1,	-1,	-1,	-1,	-1,	-1,	44,	2,	-1,	-1,	-1,	-1,	25,	32,	16,	36,	20,	-1,	-1,	59,	-1,	58,	43,	3,	-1,	9|
-1,	-1,	23,	-1,	15,	-1,	-1,	-1,	-1,	-1,	64,	-1,	-1,	43,	-1,	27,	-1,	39,	-1,	11,	54,	5,	-1,	36,	59,	-1,	35,	-1,	-1,	-1,	17,	31,	-1,	13,	-1,	58,	1,	-1,	-1,	-1,	-1,	50,	41,	28,	8,	16,	-1,	-1,	-1,	22,	57,	62,	-1,	45,	-1,	-1,	44,	60,	10,	46,	48,	29,	32,	51|
-1,	30,	-1,	-1,	-1,	-1,	-1,	-1,	-1,	11,	-1,	17,	-1,	-1,	60,	-1,	59,	-1,	-1,	-1,	48,	-1,	-1,	22,	-1,	19,	39,	38,	-1,	23,	-1,	-1,	-1,	35,	-1,	-1,	-1,	-1,	28,	-1,	12,	45,	-1,	-1,	-1,	-1,	-1,	-1,	27,	-1,	-1,	-1,	29,	34,	47,	-1,	54,	-1,	-1,	26,	-1,	-1,	-1,	15|
45,	13,	-1,	-1,	62,	-1,	51,	-1,	35,	31,	23,	34,	24,	-1,	-1,	-1,	2,	9,	-1,	47,	15,	-1,	-1,	1,	-1,	-1,	41,	55,	-1,	4,	-1,	42,	63,	57,	56,	-1,	-1,	-1,	-1,	-1,	-1,	-1,	30,	-1,	-1,	54,	-1,	3,	28,	17,	61,	44,	-1,	39,	52,	-1,	-1,	25,	64,	11,	-1,	27,	7,	-1|
19,	-1,	43,	-1,	-1,	-1,	6,	-1,	63,	-1,	15,	58,	7,	-1,	31,	-1,	-1,	24,	64,	60,	-1,	-1,	25,	30,	52,	17,	-1,	-1,	20,	54,	5,	-1,	28,	8,	-1,	-1,	-1,	10,	22,	-1,	13,	39,	-1,	-1,	61,	-1,	51,	32,	-1,	2,	11,	48,	-1,	-1,	4,	-1,	-1,	33,	-1,	29,	-1,	-1,	56,	-1|
2,	-1,	58,	-1,	40,	-1,	-1,	16,	-1,	-1,	-1,	46,	44,	59,	-1,	-1,	-1,	-1,	-1,	15,	39,	-1,	38,	-1,	9,	-1,	-1,	6,	48,	18,	31,	-1,	19,	23,	60,	33,	-1,	30,	-1,	-1,	45,	-1,	-1,	22,	-1,	57,	10,	1,	-1,	50,	8,	-1,	47,	-1,	-1,	-1,	-1,	-1,	-1,	62,	-1,	-1,	-1,	-1|
4,	9,	62,	5,	-1,	-1,	26,	29,	-1,	48,	22,	-1,	-1,	55,	-1,	-1,	13,	12,	33,	-1,	-1,	-1,	-1,	46,	58,	24,	56,	51,	23,	-1,	-1,	-1,	40,	11,	20,	-1,	-1,	63,	7,	-1,	19,	30,	-1,	36,	60,	6,	-1,	28,	64,	-1,	-1,	-1,	-1,	57,	-1,	-1,	-1,	31,	-1,	43,	14,	-1,	-1,	54|
-1,	25,	51,	-1,	-1,	-1,	54,	-1,	-1,	29,	61,	30,	-1,	45,	32,	-1,	3,	42,	14,	10,	6,	58,	35,	9,	21,	-1,	-1,	43,	7,	39,	11,	34,	59,	-1,	-1,	-1,	57,	52,	-1,	-1,	4,	-1,	-1,	8,	-1,	-1,	-1,	56,	1,	36,	19,	31,	-1,	-1,	-1,	13,	2,	-1,	22,	60,	24,	-1,	-1,	-1|
-1,	18,	47,	-1,	37,	-1,	-1,	23,	-1,	9,	10,	-1,	-1,	-1,	39,	-1,	-1,	41,	-1,	-1,	27,	50,	-1,	55,	46,	36,	-1,	-1,	22,	35,	-1,	-1,	5,	26,	64,	-1,	13,	49,	32,	-1,	-1,	-1,	20,	58,	11,	-1,	12,	-1,	-1,	25,	-1,	-1,	43,	30,	-1,	-1,	48,	6,	19,	-1,	44,	-1,	-1,	-1|
57,	-1,	-1,	-1,	-1,	-1,	24,	13,	16,	20,	-1,	62,	2,	-1,	17,	-1,	-1,	-1,	44,	48,	18,	26,	5,	8,	-1,	-1,	29,	-1,	53,	60,	1,	30,	38,	12,	-1,	39,	-1,	9,	-1,	-1,	-1,	-1,	37,	49,	-1,	-1,	-1,	-1,	-1,	55,	63,	-1,	-1,	10,	59,	46,	23,	-1,	-1,	-1,	15,	-1,	-1,	11|
-1,	11,	31,	-1,	-1,	-1,	-1,	-1,	-1,	49,	-1,	36,	60,	56,	26,	57,	37,	-1,	-1,	-1,	-1,	22,	-1,	-1,	19,	-1,	33,	-1,	-1,	-1,	42,	64,	-1,	-1,	2,	18,	46,	34,	-1,	6,	-1,	54,	-1,	-1,	-1,	-1,	-1,	15,	-1,	51,	53,	-1,	24,	-1,	61,	5,	-1,	-1,	-1,	-1,	-1,	12,	30,	13|
-1,	-1,	-1,	-1,	-1,	10,	34,	-1,	13,	21,	28,	12,	-1,	-1,	50,	-1,	11,	-1,	-1,	36,	32,	2,	-1,	-1,	-1,	37,	26,	-1,	15,	62,	57,	49,	61,	-1,	-1,	24,	45,	47,	31,	-1,	59,	-1,	5,	-1,	63,	48,	-1,	-1,	33,	-1,	27,	6,	14,	-1,	-1,	-1,	-1,	18,	-1,	-1,	-1,	58,	-1,	39|
24,	-1,	13,	-1,	-1,	-1,	29,	2,	23,	30,	46,	-1,	8,	-1,	11,	10,	-1,	47,	61,	57,	-1,	-1,	27,	-1,	-1,	35,	-1,	26,	-1,	19,	62,	33,	12,	34,	-1,	63,	16,	-1,	58,	-1,	-1,	-1,	22,	17,	53,	-1,	36,	54,	-1,	-1,	15,	51,	20,	-1,	-1,	-1,	-1,	43,	7,	48,	64,	-1,	-1,	5|
42,	43,	4,	47,	-1,	50,	10,	-1,	-1,	16,	-1,	-1,	-1,	-1,	-1,	-1,	30,	-1,	21,	56,	-1,	-1,	-1,	2,	38,	48,	18,	13,	27,	44,	-1,	22,	60,	-1,	61,	-1,	-1,	37,	64,	51,	52,	-1,	14,	-1,	33,	11,	58,	-1,	45,	-1,	7,	-1,	-1,	55,	-1,	40,	-1,	-1,	28,	36,	32,	-1,	-1,	23|
3,	-1,	-1,	38,	-1,	49,	64,	39,	-1,	-1,	-1,	-1,	-1,	48,	43,	7,	-1,	32,	36,	-1,	-1,	25,	-1,	23,	-1,	-1,	-1,	-1,	-1,	15,	-1,	51,	62,	-1,	-1,	4,	-1,	28,	57,	-1,	50,	34,	-1,	-1,	1,	-1,	-1,	44,	37,	-1,	13,	17,	-1,	59,	-1,	-1,	-1,	-1,	-1,	54,	-1,	31,	35,	52|
-1,	21,	-1,	20,	-1,	30,	40,	-1,	58,	-1,	37,	-1,	63,	-1,	-1,	-1,	5,	-1,	-1,	38,	-1,	52,	17,	42,	1,	32,	-1,	31,	6,	55,	54,	9,	-1,	-1,	-1,	-1,	-1,	-1,	47,	-1,	-1,	8,	-1,	16,	4,	3,	60,	24,	-1,	29,	28,	10,	-1,	-1,	-1,	-1,	-1,	-1,	45,	39,	53,	-1,	14,	-1|
35,	-1,	61,	7,	-1,	23,	-1,	46,	28,	38,	44,	40,	-1,	-1,	53,	-1,	1,	10,	41,	54,	13,	-1,	26,	-1,	-1,	-1,	-1,	24,	-1,	30,	58,	57,	-1,	-1,	-1,	3,	-1,	-1,	27,	-1,	47,	-1,	-1,	2,	64,	21,	43,	19,	36,	39,	-1,	63,	52,	-1,	49,	6,	42,	-1,	15,	20,	-1,	9,	-1,	-1|
1,	-1,	-1,	-1,	-1,	-1,	-1,	-1,	57,	-1,	-1,	-1,	-1,	60,	-1,	-1,	-1,	-1,	45,	-1,	-1,	64,	8,	-1,	-1,	-1,	63,	20,	2,	-1,	50,	-1,	-1,	-1,	9,	-1,	-1,	32,	30,	-1,	-1,	-1,	10,	-1,	31,	-1,	15,	38,	-1,	26,	54,	19,	27,	-1,	-1,	-1,	-1,	-1,	21,	41,	-1,	11,	-1,	17|
-1,	8,	54,	63,	44,	15,	31,	-1,	64,	-1,	13,	-1,	21,	-1,	55,	52,	-1,	-1,	22,	58,	29,	-1,	3,	-1,	36,	39,	-1,	42,	-1,	7,	43,	5,	17,	-1,	11,	-1,	26,	-1,	-1,	2,	-1,	28,	-1,	9,	-1,	25,	37,	-1,	47,	48,	62,	23,	56,	4,	-1,	14,	16,	24,	-1,	-1,	10,	49,	-1,	-1|
34,	36,	-1,	14,	-1,	5,	19,	-1,	-1,	-1,	20,	-1,	47,	51,	49,	59,	9,	40,	-1,	28,	-1,	-1,	43,	-1,	-1,	23,	52,	8,	-1,	64,	-1,	-1,	31,	7,	-1,	-1,	54,	-1,	10,	-1,	27,	18,	-1,	-1,	-1,	-1,	-1,	46,	12,	11,	44,	3,	22,	-1,	25,	-1,	1,	-1,	-1,	-1,	-1,	63,	-1,	26|
16,	-1,	14,	55,	41,	19,	47,	-1,	-1,	58,	-1,	37,	-1,	20,	-1,	-1,	-1,	31,	-1,	-1,	43,	-1,	48,	-1,	-1,	-1,	60,	-1,	-1,	-1,	-1,	26,	-1,	-1,	33,	6,	-1,	35,	46,	18,	25,	42,	-1,	-1,	50,	62,	64,	-1,	-1,	44,	-1,	2,	-1,	17,	-1,	29,	11,	-1,	52,	-1,	-1,	-1,	-1,	32|
-1,	6,	-1,	29,	33,	-1,	-1,	49,	47,	18,	-1,	-1,	57,	-1,	-1,	-1,	-1,	-1,	-1,	-1,	-1,	7,	-1,	-1,	62,	-1,	55,	25,	1,	32,	38,	63,	8,	15,	31,	-1,	-1,	-1,	42,	39,	54,	-1,	26,	37,	-1,	30,	52,	-1,	34,	-1,	-1,	-1,	50,	-1,	-1,	59,	-1,	-1,	-1,	-1,	-1,	-1,	-1,	58|
56,	5,	-1,	-1,	-1,	42,	-1,	35,	-1,	-1,	-1,	32,	43,	-1,	-1,	-1,	4,	45,	-1,	-1,	-1,	-1,	-1,	47,	-1,	41,	12,	21,	37,	-1,	-1,	-1,	-1,	63,	29,	-1,	52,	-1,	53,	-1,	-1,	11,	51,	44,	59,	-1,	31,	-1,	60,	38,	49,	-1,	19,	58,	54,	36,	13,	23,	48,	-1,	-1,	-1,	17,	-1|
60,	-1,	63,	53,	-1,	18,	37,	27,	46,	12,	54,	-1,	-1,	-1,	-1,	-1,	-1,	-1,	-1,	-1,	-1,	59,	11,	58,	-1,	-1,	48,	17,	43,	6,	36,	7,	-1,	40,	-1,	-1,	-1,	-1,	62,	34,	28,	-1,	39,	-1,	-1,	15,	-1,	-1,	-1,	4,	47,	-1,	32,	-1,	-1,	-1,	56,	16,	5,	25,	-1,	-1,	-1,	-1|
-1,	10,	7,	-1,	21,	-1,	4,	-1,	5,	63,	-1,	-1,	11,	-1,	28,	31,	-1,	-1,	-1,	-1,	41,	-1,	-1,	32,	40,	33,	34,	35,	-1,	61,	19,	18,	27,	60,	12,	59,	-1,	3,	-1,	9,	16,	53,	-1,	-1,	23,	49,	-1,	-1,	-1,	-1,	64,	-1,	-1,	37,	56,	-1,	-1,	39,	47,	-1,	-1,	26,	-1,	-1|
-1,	-1,	-1,	-1,	-1,	38,	-1,	1,	-1,	59,	-1,	-1,	48,	-1,	16,	34,	-1,	53,	60,	-1,	25,	-1,	61,	-1,	-1,	11,	-1,	-1,	-1,	-1,	44,	-1,	41,	-1,	24,	-1,	-1,	54,	55,	45,	10,	-1,	-1,	21,	18,	-1,	-1,	22,	-1,	27,	39,	-1,	-1,	-1,	28,	12,	46,	40,	63,	-1,	29,	37,	-1,	7|
-1,	-1,	-1,	-1,	64,	-1,	-1,	11,	-1,	-1,	-1,	-1,	33,	22,	30,	38,	10,	-1,	-1,	50,	-1,	23,	55,	-1,	-1,	56,	-1,	-1,	52,	-1,	29,	-1,	7,	19,	-1,	-1,	49,	58,	17,	28,	60,	6,	-1,	35,	-1,	47,	40,	4,	51,	-1,	-1,	-1,	48,	-1,	-1,	41,	-1,	-1,	-1,	-1,	-1,	34,	44,	21|
-1,	3,	12,	8,	-1,	-1,	-1,	40,	26,	-1,	60,	52,	49,	-1,	-1,	-1,	27,	6,	-1,	17,	-1,	-1,	44,	24,	30,	53,	-1,	46,	28,	-1,	59,	54,	16,	-1,	43,	13,	5,	-1,	-1,	22,	32,	63,	-1,	45,	-1,	-1,	-1,	-1,	-1,	-1,	-1,	33,	-1,	-1,	-1,	15,	-1,	-1,	31,	-1,	4,	64,	38,	50|
8,	39,	-1,	54,	-1,	35,	-1,	-1,	44,	-1,	2,	29,	-1,	36,	-1,	-1,	33,	-1,	-1,	42,	63,	-1,	-1,	-1,	17,	-1,	30,	-1,	55,	24,	-1,	28,	-1,	46,	-1,	-1,	-1,	-1,	-1,	-1,	-1,	-1,	53,	-1,	-1,	32,	11,	-1,	-1,	-1,	-1,	5,	-1,	-1,	19,	21,	-1,	58,	60,	-1,	-1,	43,	10,	48|
13,	-1,	-1,	24,	-1,	6,	5,	36,	-1,	51,	-1,	-1,	32,	-1,	58,	-1,	12,	20,	-1,	-1,	-1,	-1,	-1,	34,	56,	43,	-1,	39,	-1,	-1,	47,	-1,	-1,	-1,	-1,	-1,	48,	44,	-1,	-1,	-1,	1,	-1,	64,	57,	-1,	59,	45,	-1,	-1,	-1,	7,	2,	-1,	26,	4,	-1,	-1,	-1,	21,	19,	14,	-1,	-1|
21,	20,	45,	16,	28,	26,	-1,	7,	-1,	-1,	-1,	27,	-1,	12,	-1,	-1,	-1,	-1,	-1,	-1,	58,	-1,	30,	-1,	-1,	-1,	1,	15,	3,	5,	-1,	32,	2,	22,	-1,	-1,	61,	-1,	6,	31,	-1,	44,	-1,	-1,	-1,	51,	-1,	-1,	13,	54,	10,	-1,	-1,	60,	50,	17,	41,	-1,	11,	33,	35,	42,	40,	29|
-1,	12,	29,	-1,	-1,	-1,	52,	-1,	-1,	-1,	-1,	60,	25,	-1,	46,	-1,	17,	-1,	57,	18,	36,	14,	-1,	-1,	-1,	9,	-1,	2,	44,	-1,	35,	-1,	-1,	-1,	59,	7,	34,	-1,	-1,	23,	-1,	21,	19,	15,	28,	8,	-1,	30,	-1,	24,	-1,	-1,	1,	-1,	-1,	32,	50,	22,	6,	37,	56,	20,	-1,	61|
41,	-1,	-1,	-1,	59,	51,	48,	17,	-1,	-1,	34,	-1,	-1,	24,	7,	-1,	35,	-1,	-1,	1,	10,	29,	-1,	-1,	12,	-1,	-1,	60,	58,	45,	-1,	25,	-1,	47,	57,	-1,	11,	-1,	21,	50,	-1,	14,	54,	-1,	-1,	-1,	46,	26,	9,	-1,	30,	-1,	-1,	33,	31,	-1,	-1,	3,	-1,	-1,	8,	-1,	-1,	-1|
23,	-1,	42,	-1,	-1,	-1,	60,	-1,	39,	53,	-1,	-1,	-1,	-1,	9,	41,	25,	22,	47,	26,	-1,	6,	-1,	-1,	-1,	50,	10,	-1,	49,	-1,	34,	19,	24,	29,	-1,	37,	-1,	14,	-1,	63,	18,	7,	17,	20,	-1,	35,	-1,	-1,	-1,	-1,	51,	-1,	-1,	-1,	-1,	44,	32,	-1,	38,	-1,	-1,	-1,	54,	12|
14,	-1,	57,	15,	-1,	-1,	50,	-1,	17,	-1,	-1,	-1,	38,	-1,	-1,	20,	49,	-1,	-1,	-1,	64,	51,	-1,	44,	-1,	6,	36,	33,	-1,	-1,	22,	-1,	54,	-1,	-1,	40,	28,	56,	60,	16,	31,	61,	9,	34,	58,	12,	24,	63,	18,	-1,	-1,	25,	45,	8,	-1,	-1,	4,	-1,	-1,	-1,	-1,	47,	26,	-1|
-1,	-1,	56,	30,	31,	22,	-1,	32,	62,	-1,	-1,	35,	14,	61,	-1,	-1,	-1,	27,	-1,	-1,	28,	-1,	40,	60,	-1,	-1,	-1,	63,	54,	52,	37,	-1,	-1,	-1,	-1,	-1,	-1,	-1,	-1,	-1,	-1,	10,	49,	25,	38,	-1,	47,	-1,	-1,	-1,	16,	-1,	41,	-1,	29,	39,	24,	-1,	13,	-1,	-1,	-1,	-1,	-1|
5,	26,	-1,	6,	-1,	12,	-1,	3,	41,	62,	-1,	-1,	-1,	-1,	-1,	32,	-1,	44,	56,	-1,	42,	-1,	-1,	-1,	-1,	64,	51,	45,	24,	-1,	55,	1,	-1,	-1,	-1,	-1,	7,	-1,	-1,	8,	-1,	29,	59,	50,	-1,	-1,	14,	-1,	63,	10,	-1,	-1,	-1,	46,	-1,	37,	-1,	-1,	49,	-1,	-1,	-1,	-1,	-1|
-1,	-1,	-1,	11,	13,	-1,	15,	-1,	-1,	44,	29,	64,	17,	-1,	37,	-1,	6,	-1,	-1,	-1,	-1,	-1,	1,	-1,	63,	47,	-1,	32,	30,	-1,	3,	52,	-1,	-1,	-1,	5,	31,	-1,	2,	-1,	-1,	57,	-1,	-1,	-1,	-1,	-1,	35,	-1,	23,	59,	18,	-1,	-1,	-1,	-1,	-1,	50,	-1,	-1,	-1,	41,	-1,	-1|
-1,	-1,	-1,	1,	-1,	-1,	44,	-1,	-1,	-1,	52,	-1,	61,	53,	-1,	22,	15,	8,	-1,	-1,	-1,	46,	-1,	-1,	6,	27,	37,	-1,	-1,	-1,	21,	-1,	-1,	-1,	-1,	9,	-1,	19,	33,	-1,	41,	2,	16,	24,	-1,	-1,	34,	-1,	-1,	-1,	36,	13,	17,	50,	-1,	-1,	-1,	54,	-1,	5,	58,	-1,	-1,	31|
43,	34,	53,	-1,	55,	61,	7,	37,	-1,	-1,	31,	-1,	-1,	-1,	-1,	-1,	-1,	-1,	-1,	51,	-1,	-1,	39,	29,	-1,	4,	19,	-1,	-1,	48,	40,	-1,	-1,	58,	13,	-1,	63,	-1,	23,	-1,	-1,	52,	12,	47,	-1,	-1,	-1,	21,	26,	5,	-1,	-1,	6,	56,	-1,	20,	30,	-1,	18,	-1,	-1,	25,	62,	-1|
59,	14,	64,	51,	-1,	-1,	8,	-1,	-1,	-1,	-1,	-1,	-1,	9,	42,	-1,	-1,	-1,	-1,	24,	22,	-1,	-1,	-1,	-1,	61,	-1,	-1,	-1,	41,	-1,	35,	57,	37,	52,	30,	-1,	60,	49,	-1,	11,	-1,	3,	-1,	13,	44,	-1,	31,	32,	47,	4,	-1,	15,	-1,	21,	43,	-1,	-1,	-1,	1,	-1,	-1,	12,	-1|
-1,	47,	-1,	-1,	-1,	-1,	-1,	58,	-1,	6,	-1,	-1,	46,	-1,	13,	-1,	41,	-1,	-1,	9,	57,	-1,	-1,	-1,	25,	-1,	-1,	-1,	39,	-1,	-1,	-1,	43,	-1,	34,	-1,	-1,	-1,	59,	-1,	1,	-1,	-1,	-1,	-1,	61,	63,	5,	49,	28,	-1,	-1,	8,	19,	16,	-1,	-1,	-1,	24,	-1,	20,	48,	-1,	-1|
-1,	-1,	41,	-1,	-1,	46,	-1,	-1,	-1,	34,	-1,	56,	23,	14,	-1,	-1,	-1,	-1,	30,	52,	-1,	31,	-1,	-1,	22,	10,	15,	59,	-1,	42,	-1,	-1,	47,	-1,	6,	29,	17,	1,	-1,	-1,	-1,	19,	-1,	-1,	40,	-1,	-1,	-1,	61,	57,	9,	-1,	-1,	25,	-1,	27,	63,	-1,	-1,	32,	-1,	-1,	8,	37|
-1,	49,	-1,	-1,	29,	57,	27,	-1,	-1,	-1,	18,	-1,	-1,	35,	-1,	24,	50,	-1,	59,	61,	-1,	13,	-1,	-1,	-1,	-1,	-1,	5,	31,	16,	-1,	46,	45,	-1,	-1,	56,	-1,	-1,	40,	10,	-1,	-1,	-1,	-1,	-1,	28,	22,	-1,	-1,	62,	41,	11,	-1,	14,	33,	-1,	-1,	19,	51,	15,	-1,	-1,	-1,	-1|
50,	-1,	-1,	57,	17,	27,	-1,	-1,	25,	7,	-1,	4,	59,	-1,	-1,	-1,	-1,	30,	-1,	-1,	5,	-1,	-1,	-1,	49,	54,	20,	18,	16,	-1,	-1,	21,	-1,	45,	46,	-1,	-1,	15,	-1,	13,	-1,	23,	-1,	-1,	-1,	-1,	-1,	-1,	3,	19,	-1,	-1,	-1,	-1,	63,	38,	14,	32,	-1,	-1,	-1,	22,	-1,	47|
11,	-1,	59,	40,	32,	-1,	-1,	-1,	56,	-1,	16,	-1,	30,	-1,	-1,	15,	-1,	-1,	25,	-1,	-1,	-1,	29,	35,	-1,	-1,	24,	-1,	-1,	53,	61,	39,	49,	-1,	63,	27,	50,	64,	-1,	-1,	-1,	-1,	38,	-1,	19,	17,	41,	-1,	-1,	58,	21,	-1,	-1,	7,	12,	60,	31,	13,	20,	34,	-1,	-1,	-1,	6|
6,	38,	10,	-1,	25,	-1,	-1,	60,	2,	17,	-1,	20,	41,	44,	64,	14,	54,	11,	58,	-1,	-1,	-1,	-1,	53,	35,	7,	5,	-1,	34,	-1,	52,	23,	1,	18,	55,	12,	-1,	40,	-1,	30,	15,	13,	57,	33,	21,	-1,	28,	50,	56,	-1,	-1,	-1,	31,	-1,	-1,	61,	-1,	-1,	-1,	49,	-1,	-1,	-1,	-1|
-1,	41,	37,	21,	39,	2,	55,	-1,	6,	-1,	49,	42,	35,	-1,	45,	-1,	64,	-1,	-1,	-1,	-1,	27,	51,	-1,	-1,	-1,	-1,	19,	-1,	63,	32,	14,	53,	-1,	26,	22,	-1,	-1,	11,	17,	58,	-1,	-1,	-1,	-1,	-1,	-1,	-1,	30,	9,	-1,	-1,	-1,	13,	48,	54,	-1,	-1,	-1,	56,	-1,	-1,	-1,	-1|
-1,	-1,	16,	-1,	-1,	-1,	35,	-1,	22,	10,	3,	43,	-1,	-1,	-1,	-1,	-1,	-1,	-1,	55,	56,	-1,	20,	19,	-1,	-1,	42,	37,	51,	-1,	6,	-1,	-1,	-1,	21,	60,	2,	-1,	-1,	-1,	-1,	25,	27,	5,	45,	-1,	-1,	59,	8,	-1,	26,	52,	64,	53,	-1,	-1,	17,	-1,	-1,	63,	38,	61,	-1,	44|
-1,	56,	5,	19,	-1,	-1,	-1,	-1,	-1,	-1,	24,	54,	-1,	-1,	63,	11,	-1,	2,	-1,	-1,	-1,	12,	-1,	33,	60,	45,	28,	-1,	-1,	43,	27,	-1,	10,	52,	62,	34,	-1,	-1,	-1,	-1,	-1,	-1,	-1,	-1,	42,	-1,	7,	-1,	35,	-1,	50,	36,	-1,	-1,	-1,	-1,	-1,	-1,	40,	9,	55,	23,	15,	-1|
51,	23,	-1,	58,	-1,	-1,	61,	-1,	36,	-1,	-1,	13,	50,	-1,	-1,	-1,	-1,	-1,	-1,	6,	21,	-1,	60,	-1,	15,	55,	-1,	64,	-1,	38,	30,	-1,	20,	59,	14,	8,	42,	5,	-1,	7,	-1,	46,	-1,	-1,	32,	-1,	-1,	34,	25,	41,	-1,	-1,	4,	43,	-1,	-1,	-1,	35,	-1,	12,	3,	53,	33,	-1|
12,	-1,	-1,	-1,	-1,	-1,	9,	-1,	29,	-1,	32,	39,	-1,	21,	38,	-1,	-1,	23,	-1,	22,	-1,	15,	-1,	-1,	-1,	62,	50,	1,	-1,	-1,	33,	-1,	48,	44,	-1,	-1,	6,	31,	-1,	-1,	-1,	20,	52,	3,	-1,	-1,	-1,	16,	14,	34,	-1,	-1,	-1,	-1,	42,	55,	64,	-1,	-1,	-1,	-1,	-1,	43,	-1|
37,	-1,	-1,	-1,	24,	-1,	-1,	5,	61,	-1,	57,	7,	-1,	-1,	-1,	39,	-1,	34,	-1,	3,	-1,	54,	46,	-1,	42,	52,	43,	41,	35,	40,	60,	55,	22,	-1,	38,	-1,	30,	51,	-1,	-1,	14,	12,	-1,	-1,	-1,	4,	-1,	58,	-1,	-1,	-1,	-1,	10,	-1,	-1,	-1,	26,	-1,	-1,	-1,	18,	2,	53,	59|
25,	17,	27,	35,	-1,	21,	-1,	-1,	14,	42,	-1,	-1,	10,	11,	20,	-1,	-1,	60,	51,	31,	1,	61,	36,	-1,	50,	18,	-1,	30,	-1,	-1,	24,	-1,	9,	49,	54,	43,	-1,	55,	-1,	26,	-1,	15,	33,	48,	-1,	-1,	-1,	-1,	2,	-1,	-1,	4,	-1,	52,	44,	28,	-1,	62,	-1,	7,	-1,	-1,	64,	-1|
30,	-1,	52,	39,	-1,	48,	-1,	-1,	-1,	-1,	56,	1,	-1,	16,	24,	-1,	53,	29,	19,	-1,	33,	-1,	14,	-1,	4,	-1,	-1,	7,	-1,	27,	13,	-1,	6,	-1,	-1,	31,	23,	62,	-1,	58,	44,	55,	11,	18,	3,	9,	25,	43,	-1,	64,	-1,	60,	-1,	15,	41,	49,	-1,	-1,	8,	-1,	21,	-1,	57,	-1|
-1,	58,	20,	34,	-1,	31,	-1,	50,	-1,	60,	59,	5,	52,	25,	44,	2,	-1,	64,	32,	41,	-1,	10,	-1,	-1,	-1,	46,	-1,	-1,	-1,	-1,	-1,	-1,	15,	53,	35,	-1,	33,	-1,	-1,	-1,	51,	27,	45,	-1,	16,	24,	-1,	-1,	7,	56,	12,	55,	30,	26,	11,	-1,	37,	-1,	43,	3,	6,	-1,	19,	14|
29,	-1,	9,	-1,	-1,	-1,	-1,	-1,	43,	50,	-1,	-1,	54,	28,	27,	17,	38,	-1,	13,	-1,	-1,	47,	22,	-1,	-1,	34,	-1,	-1,	61,	25,	-1,	-1,	56,	48,	19,	32,	-1,	-1,	-1,	37,	-1,	40,	-1,	10,	-1,	-1,	-1,	7,	62,	46,	58,	1,	-1,	3,	-1,	-1,	15,	-1,	-1,	-1,	52,	33,	-1,	-1|
-1,	-1,	26,	-1,	14,	-1,	-1,	-1,	55,	19,	58,	45,	-1,	-1,	-1,	-1,	-1,	43,	-1,	59,	9,	8,	24,	-1,	57,	31,	62,	29,	63,	20,	-1,	15,	-1,	2,	-1,	11,	36,	18,	52,	44,	-1,	32,	-1,	-1,	-1,	-1,	-1,	39,	-1,	-1,	-1,	-1,	-1,	-1,	17,	-1,	-1,	41,	1,	-1,	12,	4,	48,	-1|
47,	7,	15,	-1,	1,	36,	33,	-1,	12,	64,	-1,	-1,	29,	-1,	-1,	48,	-1,	-1,	18,	27,	26,	-1,	-1,	28,	44,	-1,	21,	-1,	-1,	51,	2,	-1,	3,	-1,	-1,	-1,	-1,	17,	13,	46,	-1,	-1,	-1,	-1,	52,	19,	-1,	-1,	39,	-1,	43,	53,	25,	63,	-1,	24,	20,	-1,	-1,	22,	-1,	-1,	11,	-1|
55,	-1,	-1,	-1,	6,	-1,	-1,	59,	53,	22,	-1,	51,	26,	-1,	40,	8,	20,	-1,	15,	-1,	50,	48,	52,	-1,	-1,	1,	16,	-1,	-1,	11,	-1,	-1,	21,	14,	-1,	47,	-1,	-1,	-1,	-1,	-1,	-1,	31,	-1,	-1,	41,	30,	29,	19,	18,	32,	57,	36,	54,	-1,	9,	38,	34,	56,	-1,	25,	-1,	-1,	28|];
