benchmarks_LEQ/INST_64x64/50/inst64x64_50_30.txt
8
1
32	-1	11	28	-1	-1	-1	-1	-1	15	19	-1	-1	-1	-1	26	-1	51	20	-1	55	-1	-1	-1	29	-1	-1	-1	-1	58	46	36	-1	27	-1	-1	10	7	5	62	21	-1	43	-1	24	-1	61	25	-1	30	-1	64	-1	-1	-1	-1	-1	12	-1	50	45	-1	-1	-1
58	31	3	27	2	-1	-1	-1	1	8	-1	16	18	39	-1	44	-1	61	46	37	30	57	-1	38	5	28	32	-1	-1	10	-1	-1	-1	-1	-1	50	-1	26	15	-1	22	-1	7	-1	-1	36	-1	-1	54	12	60	59	13	-1	9	-1	49	-1	14	52	-1	-1	4	56
36	-1	21	46	-1	-1	-1	25	-1	47	62	59	28	38	-1	-1	44	14	-1	32	53	-1	-1	-1	51	-1	64	-1	57	1	-1	2	-1	-1	-1	-1	-1	-1	-1	24	9	58	15	27	-1	60	-1	11	41	8	56	-1	-1	-1	-1	10	-1	30	42	35	-1	-1	-1	19
-1	48	-1	-1	5	39	-1	-1	7	-1	-1	-1	-1	10	-1	58	26	17	40	23	45	3	64	41	13	15	-1	27	-1	9	-1	62	11	-1	-1	25	-1	36	12	-1	34	59	42	-1	51	29	20	47	46	31	-1	-1	53	21	-1	19	-1	-1	2	61	63	1	28	38
-1	-1	-1	50	-1	1	-1	-1	30	-1	-1	33	-1	-1	51	-1	-1	-1	31	-1	8	-1	-1	27	-1	21	6	52	18	37	-1	-1	39	54	-1	-1	40	-1	14	38	-1	4	56	-1	-1	-1	-1	64	-1	35	-1	32	16	-1	-1	-1	-1	-1	-1	-1	-1	3	-1	9
38	-1	-1	-1	15	40	12	-1	-1	2	-1	-1	-1	-1	-1	-1	-1	39	-1	11	-1	5	7	36	-1	-1	-1	-1	-1	33	-1	-1	-1	13	47	-1	1	-1	9	-1	-1	-1	41	-1	8	-1	-1	-1	-1	22	57	-1	-1	45	55	3	44	-1	10	-1	48	29	32	-1
20	30	6	-1	43	-1	-1	42	32	-1	-1	-1	55	-1	60	-1	59	25	-1	-1	-1	56	-1	-1	-1	19	39	38	-1	-1	49	24	-1	-1	53	-1	41	-1	-1	-1	12	45	-1	57	-1	18	-1	-1	27	7	-1	-1	-1	-1	47	63	-1	-1	33	26	31	-1	21	-1
-1	-1	8	18	-1	29	51	-1	35	-1	23	-1	24	-1	-1	5	2	-1	-1	-1	15	-1	-1	1	-1	60	41	55	-1	-1	-1	-1	-1	-1	56	-1	-1	-1	48	49	-1	-1	-1	6	-1	-1	-1	-1	28	17	61	-1	58	39	-1	50	-1	25	64	-1	37	27	-1	53
-1	-1	-1	-1	49	-1	-1	21	-1	-1	15	58	7	41	31	-1	-1	24	-1	-1	-1	-1	25	30	52	17	-1	-1	-1	54	5	27	28	8	50	-1	55	10	22	14	-1	-1	23	38	-1	-1	51	-1	16	2	11	-1	-1	18	4	62	36	-1	-1	-1	-1	59	-1	-1
-1	64	-1	36	40	-1	-1	16	-1	43	-1	-1	44	-1	54	53	61	52	-1	15	-1	21	-1	49	-1	63	-1	6	48	18	31	-1	-1	23	60	33	51	-1	-1	56	45	24	-1	-1	25	57	10	-1	17	50	-1	12	-1	-1	-1	-1	5	26	-1	62	-1	-1	-1	-1
-1	-1	62	5	8	41	26	-1	3	-1	22	-1	42	-1	-1	1	13	-1	33	16	47	-1	59	46	58	24	56	-1	-1	2	-1	10	-1	11	20	-1	25	-1	7	27	-1	-1	-1	36	-1	-1	18	28	64	-1	34	21	-1	57	39	52	53	-1	32	-1	14	-1	61	-1
-1	-1	51	-1	27	-1	54	-1	-1	-1	-1	30	-1	-1	-1	-1	-1	42	-1	-1	6	58	35	-1	21	38	47	-1	-1	39	-1	34	-1	62	-1	-1	57	52	-1	-1	4	-1	64	8	46	33	50	56	1	-1	-1	-1	26	40	15	-1	-1	-1	-1	60	-1	28	49	-1
-1	18	-1	60	37	-1	-1	23	-1	9	10	-1	-1	52	-1	33	-1	-1	63	45	-1	50	-1	-1	46	-1	-1	-1	22	35	14	59	5	-1	64	-1	13	49	32	-1	62	-1	-1	-1	-1	34	12	-1	-1	25	-1	-1	43	-1	-1	-1	48	-1	-1	-1	44	17	1	57
57	-1	-1	56	-1	33	-1	-1	-1	20	-1	-1	2	-1	17	-1	43	19	-1	48	18	-1	5	-1	32	-1	29	-1	53	-1	-1	-1	-1	-1	-1	-1	4	9	3	36	42	31	37	49	-1	14	-1	27	22	55	-1	-1	54	-1	-1	46	23	-1	-1	-1	-1	-1	-1	11
63	-1	-1	59	-1	32	-1	-1	-1	49	-1	36	-1	56	26	-1	37	-1	-1	7	-1	22	4	20	-1	8	-1	16	41	-1	42	-1	-1	-1	2	18	-1	34	-1	6	17	-1	47	55	-1	52	35	-1	58	51	53	45	24	28	61	5	-1	21	3	38	-1	-1	30	13
46	-1	30	22	-1	10	34	-1	-1	21	28	12	4	-1	50	64	-1	56	-1	36	-1	2	-1	-1	55	37	26	-1	-1	-1	57	-1	-1	-1	17	24	45	-1	-1	-1	-1	-1	-1	53	63	-1	-1	40	33	20	27	-1	14	9	-1	-1	-1	18	-1	-1	-1	-1	-1	39
24	59	-1	9	-1	28	-1	2	-1	-1	46	-1	-1	31	-1	10	-1	-1	61	-1	-1	44	-1	14	-1	-1	49	-1	-1	-1	62	-1	-1	-1	-1	63	16	45	58	-1	-1	-1	-1	-1	53	-1	36	-1	50	32	-1	-1	-1	-1	38	42	60	-1	7	48	-1	6	25	5
42	-1	-1	-1	-1	-1	-1	-1	-1	16	-1	19	15	17	5	54	30	-1	21	56	31	62	-1	-1	-1	48	-1	13	-1	44	25	-1	-1	24	61	41	20	37	-1	-1	52	-1	-1	59	33	-1	58	12	45	-1	7	9	35	-1	-1	40	-1	8	28	36	32	46	-1	-1
3	-1	55	38	11	-1	-1	39	9	14	-1	24	27	-1	-1	-1	16	-1	-1	-1	-1	-1	-1	-1	47	29	-1	53	-1	15	41	-1	62	33	42	-1	-1	-1	57	40	50	-1	63	30	-1	5	-1	-1	37	-1	-1	17	-1	59	-1	-1	61	-1	58	54	-1	31	35	52
-1	-1	33	-1	26	30	-1	-1	-1	-1	-1	-1	63	-1	-1	-1	5	-1	-1	-1	-1	-1	17	-1	-1	32	-1	-1	-1	55	54	9	-1	56	49	46	44	-1	47	-1	7	8	-1	-1	-1	3	60	-1	43	29	-1	-1	-1	61	64	-1	62	57	-1	-1	53	19	-1	-1
35	37	-1	-1	-1	-1	-1	-1	-1	-1	-1	-1	45	-1	53	56	-1	-1	-1	-1	13	11	-1	59	34	16	17	24	12	30	-1	-1	-1	-1	48	3	-1	29	-1	5	-1	-1	55	2	-1	21	-1	19	36	39	-1	63	52	31	-1	-1	-1	-1	-1	-1	22	-1	50	-1
-1	22	18	-1	51	-1	16	48	57	-1	-1	-1	-1	-1	-1	29	-1	35	45	53	-1	64	-1	7	14	3	-1	20	-1	28	-1	40	13	-1	9	-1	-1	32	30	-1	-1	49	-1	-1	31	-1	15	-1	5	-1	-1	-1	-1	-1	46	-1	-1	44	21	41	59	-1	-1	17
53	8	-1	-1	-1	-1	-1	-1	64	-1	-1	-1	-1	32	55	52	46	-1	-1	58	29	60	3	-1	-1	39	45	42	-1	7	-1	5	17	-1	-1	-1	26	-1	19	-1	-1	28	-1	9	20	25	37	-1	47	-1	-1	23	-1	-1	30	14	-1	-1	-1	-1	10	49	34	-1
34	36	-1	14	-1	-1	-1	-1	-1	-1	-1	-1	-1	51	49	59	9	40	-1	28	-1	-1	43	50	-1	-1	52	8	-1	-1	4	56	-1	7	15	-1	-1	-1	-1	-1	27	18	-1	41	29	45	48	46	12	11	-1	-1	-1	16	25	-1	-1	-1	30	55	-1	63	37	-1
-1	54	14	-1	41	19	-1	34	-1	58	27	37	56	-1	1	-1	-1	-1	-1	-1	-1	-1	-1	13	-1	-1	-1	22	9	-1	-1	-1	-1	36	33	-1	-1	35	46	18	-1	42	61	12	50	-1	64	57	-1	44	-1	2	-1	-1	-1	-1	11	15	-1	28	-1	-1	-1	-1
-1	-1	-1	-1	33	17	-1	49	47	18	53	9	57	4	23	21	-1	-1	-1	14	2	7	19	-1	62	51	-1	25	-1	-1	38	63	8	15	31	-1	56	11	-1	-1	54	5	26	-1	48	30	52	-1	34	-1	3	-1	-1	22	-1	-1	12	10	41	-1	-1	-1	60	-1
56	5	-1	-1	22	42	46	35	40	39	-1	-1	-1	64	-1	-1	4	-1	-1	34	20	-1	-1	47	-1	41	12	21	-1	14	15	50	-1	-1	29	10	-1	-1	53	57	-1	-1	-1	44	59	-1	31	-1	-1	-1	49	-1	19	-1	54	-1	-1	-1	48	-1	33	62	-1	3
-1	-1	63	53	-1	-1	37	27	46	-1	-1	-1	-1	-1	10	-1	-1	21	3	-1	-1	59	-1	58	-1	-1	48	17	-1	-1	36	-1	-1	40	1	-1	64	-1	62	34	-1	9	-1	-1	55	-1	38	-1	24	4	-1	-1	32	20	45	26	-1	16	5	25	-1	8	-1	49
48	-1	-1	-1	21	-1	-1	15	-1	63	42	-1	11	-1	-1	-1	-1	-1	54	30	41	36	-1	-1	-1	33	-1	35	45	-1	-1	-1	27	-1	-1	-1	14	-1	-1	-1	-1	53	-1	-1	-1	-1	13	-1	-1	-1	64	46	-1	37	-1	-1	-1	-1	-1	2	-1	-1	20	-1
-1	-1	2	-1	50	38	-1	1	19	-1	17	-1	48	-1	16	-1	-1	-1	-1	-1	25	49	-1	56	8	11	-1	4	-1	-1	44	-1	-1	-1	24	26	47	-1	55	45	-1	-1	-1	-1	-1	43	-1	22	-1	27	39	30	42	35	28	12	-1	40	63	-1	-1	-1	-1	7
31	32	-1	-1	-1	9	59	11	-1	-1	36	-1	33	-1	30	-1	-1	26	-1	-1	12	-1	-1	15	-1	-1	2	57	52	-1	29	16	-1	-1	37	-1	-1	58	17	28	60	6	-1	35	-1	47	40	-1	51	63	-1	-1	48	-1	-1	-1	43	53	-1	18	-1	-1	-1	21
39	3	-1	-1	36	-1	20	-1	-1	-1	-1	52	-1	29	61	-1	27	-1	-1	17	-1	-1	-1	24	30	53	-1	-1	-1	47	59	-1	-1	-1	43	-1	5	-1	25	22	32	63	2	45	-1	7	56	-1	57	-1	18	33	9	11	10	-1	55	-1	-1	19	-1	-1	-1	50
-1	39	-1	54	-1	35	-1	61	44	45	-1	29	6	-1	-1	-1	33	50	-1	42	-1	-1	56	-1	-1	20	30	-1	55	24	51	-1	-1	-1	25	-1	-1	-1	-1	15	40	-1	53	13	-1	-1	11	-1	38	3	14	-1	-1	47	19	21	7	58	60	23	49	43	-1	48
-1	-1	38	24	9	-1	5	-1	-1	51	33	-1	32	54	-1	37	-1	20	53	-1	11	55	15	34	56	-1	-1	39	-1	8	47	41	-1	17	10	-1	-1	-1	35	3	29	1	60	-1	-1	50	-1	45	-1	61	46	-1	-1	23	-1	4	25	-1	16	-1	-1	-1	63	30
21	-1	45	-1	-1	-1	25	7	49	56	-1	27	-1	-1	-1	-1	24	59	-1	-1	-1	-1	30	-1	-1	14	1	15	3	5	53	32	-1	-1	36	-1	-1	-1	-1	31	23	-1	-1	4	62	51	39	-1	-1	54	10	34	63	-1	50	-1	41	9	11	-1	35	42	40	-1
-1	12	29	-1	47	-1	-1	-1	10	26	-1	60	25	63	46	-1	-1	54	57	-1	-1	14	-1	45	-1	-1	27	2	-1	31	-1	-1	42	5	-1	7	-1	-1	-1	23	-1	-1	-1	-1	28	8	16	-1	-1	-1	-1	58	1	62	-1	32	-1	22	6	-1	-1	-1	-1	61
41	63	-1	-1	-1	51	-1	-1	-1	-1	34	28	19	24	-1	42	-1	-1	-1	1	10	29	16	61	-1	13	-1	-1	-1	45	23	-1	32	47	57	62	11	-1	21	50	5	14	54	43	-1	27	46	26	-1	-1	30	-1	49	-1	-1	22	-1	-1	53	44	8	18	39	36
-1	-1	42	-1	46	11	60	55	-1	-1	-1	48	40	-1	9	41	25	22	-1	-1	3	6	13	-1	16	-1	-1	61	-1	-1	-1	-1	-1	-1	-1	37	58	-1	45	63	18	-1	17	-1	56	-1	2	-1	59	-1	51	-1	28	64	36	44	32	1	38	31	-1	-1	-1	-1
-1	62	-1	-1	-1	-1	-1	-1	-1	3	-1	21	-1	-1	52	20	49	48	23	-1	-1	-1	-1	44	7	-1	-1	33	11	46	-1	-1	-1	1	-1	-1	-1	-1	60	16	31	-1	-1	34	-1	-1	24	63	18	42	-1	-1	45	-1	43	-1	-1	5	-1	-1	27	47	-1	-1
44	-1	-1	30	31	22	-1	32	-1	-1	1	35	14	61	18	50	7	27	-1	21	28	19	-1	-1	-1	59	-1	63	54	-1	37	48	-1	4	8	-1	-1	43	51	55	-1	-1	49	-1	-1	42	-1	-1	-1	-1	16	20	-1	12	-1	-1	24	17	-1	64	-1	15	46	45
-1	26	-1	6	-1	12	36	-1	41	62	21	57	-1	30	47	32	28	44	-1	19	42	20	-1	-1	-1	64	51	45	24	-1	-1	-1	35	38	-1	54	7	-1	18	-1	-1	29	59	50	-1	58	14	-1	-1	-1	-1	40	-1	46	34	37	-1	2	-1	13	61	52	23	22
10	-1	-1	11	-1	16	15	56	8	-1	-1	64	17	-1	37	49	6	36	55	25	14	-1	-1	-1	63	-1	9	-1	-1	34	3	-1	-1	-1	51	-1	31	24	2	-1	26	-1	-1	-1	-1	-1	-1	35	53	23	-1	18	-1	38	22	48	28	50	4	-1	-1	-1	-1	40
-1	40	-1	1	-1	-1	44	-1	20	25	-1	-1	61	-1	48	-1	15	8	10	64	60	46	47	-1	-1	-1	-1	-1	-1	-1	-1	-1	26	-1	-1	9	3	19	33	4	-1	2	16	24	30	-1	34	42	-1	-1	36	-1	17	-1	51	7	-1	-1	59	5	-1	56	-1	31
43	34	53	-1	55	61	7	37	-1	-1	31	-1	-1	-1	-1	45	-1	-1	16	51	38	-1	-1	29	54	4	-1	-1	-1	48	-1	-1	44	58	13	14	-1	-1	23	41	8	-1	12	47	-1	-1	9	21	-1	-1	1	-1	-1	56	-1	20	-1	27	18	-1	60	-1	62	-1
-1	-1	64	-1	-1	25	-1	20	-1	-1	5	-1	-1	9	42	19	-1	63	17	-1	-1	-1	-1	-1	-1	61	-1	23	-1	41	-1	35	-1	-1	-1	-1	-1	-1	-1	-1	11	-1	-1	-1	13	-1	-1	-1	-1	-1	4	29	-1	-1	21	-1	-1	46	-1	1	16	10	12	34
22	-1	-1	31	-1	54	-1	58	4	6	-1	26	-1	-1	13	40	-1	37	27	9	-1	-1	23	62	25	-1	-1	56	-1	29	12	-1	-1	-1	34	-1	15	-1	-1	-1	1	17	-1	-1	10	61	-1	5	49	28	-1	-1	-1	19	16	64	-1	-1	24	53	20	-1	55	33
-1	50	-1	-1	35	-1	21	-1	33	-1	-1	56	-1	-1	-1	-1	18	-1	30	-1	49	31	2	-1	22	-1	15	-1	-1	-1	-1	-1	47	64	6	29	17	1	-1	-1	36	-1	4	-1	40	-1	53	60	61	57	-1	54	12	25	-1	27	63	11	-1	32	-1	38	-1	37
9	49	-1	2	29	-1	-1	-1	-1	54	18	-1	-1	-1	12	-1	-1	-1	59	-1	7	13	-1	-1	-1	58	38	-1	-1	-1	-1	-1	45	55	39	-1	53	42	40	-1	6	-1	-1	32	-1	28	22	23	-1	62	-1	-1	-1	14	-1	-1	-1	-1	51	15	-1	21	-1	-1
-1	29	34	57	17	-1	42	-1	25	-1	-1	-1	-1	-1	62	28	52	-1	-1	40	-1	41	37	-1	-1	54	-1	-1	-1	56	-1	21	58	-1	46	61	-1	-1	-1	-1	48	23	-1	60	-1	64	44	-1	3	-1	6	-1	-1	51	63	38	-1	32	36	8	26	22	-1	-1
-1	-1	59	-1	-1	14	-1	-1	-1	52	-1	-1	-1	-1	8	15	-1	-1	25	43	-1	42	29	35	-1	-1	24	48	-1	-1	-1	39	-1	3	63	-1	-1	-1	54	-1	55	47	38	-1	-1	-1	-1	9	-1	-1	-1	-1	62	7	12	60	31	-1	-1	-1	-1	5	18	-1
-1	-1	10	-1	-1	43	3	-1	2	-1	-1	-1	41	44	-1	-1	-1	11	58	8	-1	-1	9	53	35	7	5	-1	-1	-1	52	23	1	-1	55	12	37	-1	36	30	-1	-1	57	-1	21	-1	-1	50	-1	-1	-1	-1	-1	-1	-1	-1	-1	-1	27	-1	-1	39	16	-1
-1	-1	37	-1	-1	2	55	33	-1	-1	49	-1	35	-1	-1	12	-1	-1	50	44	34	27	51	3	-1	40	-1	19	46	63	-1	-1	-1	16	26	22	38	57	-1	-1	-1	36	8	61	-1	31	-1	-1	-1	9	-1	15	23	13	-1	-1	-1	-1	29	-1	28	60	24	-1
-1	-1	16	-1	54	-1	-1	-1	22	10	3	-1	31	-1	34	-1	14	-1	-1	55	-1	32	20	-1	-1	57	42	-1	51	-1	6	12	23	9	-1	60	2	41	-1	47	30	25	27	5	-1	39	-1	59	-1	40	26	52	-1	-1	-1	33	17	-1	50	-1	38	-1	-1	44
-1	-1	-1	-1	20	-1	-1	30	48	-1	-1	-1	-1	26	-1	-1	-1	-1	-1	-1	-1	12	-1	33	-1	45	28	3	17	-1	-1	-1	10	52	62	34	32	39	29	-1	49	-1	6	-1	42	-1	-1	-1	35	1	50	-1	-1	44	-1	-1	21	37	-1	-1	55	23	15	-1
-1	-1	-1	58	63	52	-1	26	-1	-1	9	-1	50	27	19	-1	-1	16	49	6	-1	-1	60	39	15	-1	-1	-1	29	38	-1	-1	-1	-1	14	8	42	-1	-1	7	-1	46	40	11	-1	10	1	-1	-1	41	-1	-1	4	43	2	47	45	35	-1	12	3	53	-1	62
-1	-1	36	-1	-1	47	9	18	-1	-1	-1	39	-1	21	-1	60	63	-1	-1	-1	-1	15	-1	-1	41	-1	-1	1	-1	-1	-1	8	-1	-1	-1	-1	-1	-1	24	19	35	20	52	3	2	56	-1	-1	-1	34	37	-1	-1	-1	42	55	64	7	-1	-1	-1	30	43	25
-1	19	-1	-1	-1	-1	56	-1	61	32	-1	-1	-1	-1	15	39	45	-1	11	-1	16	-1	-1	25	42	52	43	-1	35	40	60	55	-1	-1	-1	-1	30	-1	63	-1	-1	-1	-1	-1	-1	-1	-1	-1	-1	33	48	-1	-1	-1	-1	-1	-1	29	-1	17	18	-1	53	-1
25	17	-1	-1	3	-1	-1	-1	-1	-1	-1	47	-1	11	-1	-1	23	-1	-1	-1	1	-1	36	-1	-1	-1	53	-1	19	-1	24	45	-1	49	-1	-1	-1	-1	-1	-1	56	15	-1	-1	-1	-1	-1	6	2	16	-1	-1	59	52	-1	28	58	-1	46	-1	5	-1	64	63
30	28	-1	-1	-1	48	-1	-1	-1	-1	-1	-1	-1	-1	-1	36	-1	-1	19	-1	33	-1	14	-1	-1	26	59	7	-1	27	-1	-1	-1	-1	-1	-1	23	-1	50	58	44	-1	11	18	-1	9	-1	43	-1	64	22	-1	61	-1	41	-1	-1	-1	8	42	21	-1	57	-1
40	58	20	-1	18	31	49	50	-1	60	-1	-1	52	25	-1	2	-1	-1	32	41	17	-1	-1	57	48	-1	-1	9	-1	-1	-1	47	-1	53	-1	-1	-1	-1	-1	-1	-1	-1	45	-1	16	-1	23	-1	7	56	-1	55	-1	-1	-1	8	37	61	43	-1	6	-1	19	-1
-1	53	-1	-1	-1	-1	11	-1	-1	-1	4	18	54	-1	27	17	-1	55	-1	-1	-1	47	-1	-1	23	34	-1	36	-1	-1	-1	6	56	48	19	-1	24	-1	8	-1	-1	-1	-1	-1	-1	59	42	-1	62	46	58	-1	-1	-1	35	45	-1	49	39	30	-1	-1	31	60
54	-1	26	-1	-1	60	-1	-1	55	19	58	45	37	-1	-1	30	-1	43	-1	-1	-1	8	-1	-1	-1	31	-1	29	63	20	56	15	25	-1	-1	-1	36	-1	-1	-1	64	32	28	46	47	53	49	-1	42	13	-1	50	38	-1	-1	34	27	-1	-1	-1	12	4	48	-1
47	7	-1	32	-1	36	33	4	12	-1	-1	31	29	62	-1	48	-1	58	18	27	-1	-1	-1	28	44	49	-1	-1	8	-1	2	-1	-1	-1	-1	57	-1	-1	13	46	-1	-1	34	54	-1	-1	-1	-1	39	-1	-1	-1	25	-1	23	-1	20	-1	9	22	-1	55	11	-1
-1	42	46	-1	-1	-1	43	-1	53	-1	-1	51	26	-1	-1	-1	-1	7	-1	-1	50	48	52	-1	-1	1	-1	58	-1	11	-1	-1	-1	14	-1	-1	-1	27	-1	60	2	35	31	62	17	41	-1	29	19	18	-1	57	-1	-1	37	9	38	34	56	24	25	44	-1	28
64 
57 44 29 61
54 18 50 25
47 15 31 30
7 6 4 10
59 35 44 50
4 11 28 30
28 32 13 55
29 14 38 11
11 2 7 16
52 25 7 48
44 32 22 62
33 38 5 13
7 20 12 56
47 14 34 62
59 54 41 45
4 31 25 1
44 4 33 25
45 31 20 64
5 5 53 24
31 36 50 59
58 6 61 43
61 23 24 53
29 45 7 30
63 56 51 22
15 11 12 2
25 32 22 50
60 42 21 39
14 28 61 14
18 57 17 7
42 29 44 57
24 33 41 51
50 5 43 35
56 31 36 41
3 57 17 34
4 3 14 59
57 45 27 56
3 33 27 29
24 58 51 2
22 34 20 60
21 12 34 27
54 64 48 51
13 51 6 40
61 9 18 2
36 29 50 2
2 11 26 7
33 34 5 38
22 63 13 3
32 38 2 42
29 46 45 39
61 10 20 14
39 22 14 62
30 1 6 4
50 30 6 8
64 54 6 21
27 16 22 36
4 15 31 26
17 20 48 6
7 23 52 41
16 41 20 40
58 18 37 28
28 38 31 59
59 38 15 19
5 16 43 8
26 24 31 5
